(set-logic ALL)
(declare-const GEN1 String)
(declare-const GEN2 String)
(declare-const BAV3 Bool)
(set-info :smt-lib-version 2.5)
(set-option :produce-models true)
(declare-fun s () String)
(assert (= s GEN1 GEN2))
(assert (= BAV3 (= s GEN1 GEN2)))
(check-sat)
(get-model)